(set-option :print-success false)
(set-logic QF_UF)
(declare-sort x112 0)
(declare-sort x19 0)
(declare-fun x3 () x19)
(declare-fun x20 () x19)
(declare-fun x116 () x19)
(declare-fun x131 (x19 x19) x19)
(declare-fun x67 () x19)
(declare-fun x100 (x19 x19) x19)
(declare-fun x45 () x19)
(assert (let ((x12 (x100 x20 x67)) (x149 (x100 x45 x20)) (x17 (x100 x67 x20)) (x95 (x100 x45 x67)) (x136 (x100 x45 x116)) (x11 (x100 x3 x116)) (x69 (x100 x67 x116)) (x118 (x100 x20 x20)) (x130 (x100 x116 x3)) (x151 (x100 x20 x3)) (x53 (x100 x3 x45)) (x105 (x100 x20 x45)) (x111 (x100 x45 x45)) (x91 (x100 x116 x67)) (x74 (x100 x45 x3)) (x75 (x100 x116 x45)) (x48 (x100 x20 x116)) (x124 (x100 x3 x3)) (x15 (x100 x67 x3)) (x145 (x100 x67 x45)) (x24 (x100 x116 x20)) (x140 (x100 x3 x20)) (x132 (x100 x67 x67)) (x154 (x100 x3 x67)) (x117 (x100 x116 x116))) (and (and (and (and (and (and (and (and (or (or (or (= x124 x20) (or (= x124 x67) (= x124 x3))) (= x45 x124)) (= x124 x116)) (or (= x154 x116) (or (= x45 x154) (or (= x154 x20) (or (= x154 x3) (= x67 x154)))))) (or (or (or (= x140 x20) (or (= x140 x67) (= x3 x140))) (= x45 x140)) (= x116 x140))) (or (or (or (= x20 x53) (or (= x53 x3) (= x53 x67))) (= x53 x45)) (= x53 x116))) (or (= x11 x116) (or (or (= x20 x11) (or (= x67 x11) (= x3 x11))) (= x11 x45)))) (and (or (= x69 x116) (or (= x45 x69) (or (or (= x69 x67) (= x69 x3)) (= x20 x69)))) (and (and (or (or (= x45 x17) (or (= x20 x17) (or (= x17 x67) (= x3 x17)))) (= x116 x17)) (and (or (= x116 x132) (or (= x45 x132) (or (= x20 x132) (or (= x132 x3) (= x132 x67))))) (or (= x15 x116) (or (= x15 x45) (or (= x15 x20) (or (= x15 x3) (= x67 x15))))))) (or (or (= x45 x145) (or (= x20 x145) (or (= x67 x145) (= x3 x145)))) (= x145 x116))))) (and (or (or (or (= x20 x48) (or (= x3 x48) (= x48 x67))) (= x48 x45)) (= x116 x48)) (and (or (= x105 x116) (or (= x45 x105) (or (= x105 x20) (or (= x67 x105) (= x3 x105))))) (and (or (or (= x45 x118) (or (or (= x118 x67) (= x3 x118)) (= x118 x20))) (= x118 x116)) (and (or (or (or (or (= x12 x67) (= x12 x3)) (= x20 x12)) (= x12 x45)) (= x116 x12)) (or (= x116 x151) (or (or (= x151 x20) (or (= x67 x151) (= x151 x3))) (= x45 x151)))))))) (and (and (and (and (or (or (= x45 x95) (or (= x20 x95) (or (= x95 x3) (= x67 x95)))) (= x95 x116)) (or (or (= x45 x74) (or (= x74 x20) (or (= x74 x3) (= x74 x67)))) (= x116 x74))) (or (= x149 x116) (or (= x149 x45) (or (or (= x149 x67) (= x3 x149)) (= x20 x149))))) (or (= x111 x116) (or (or (or (= x111 x67) (= x111 x3)) (= x20 x111)) (= x111 x45)))) (or (= x136 x116) (or (or (= x20 x136) (or (= x136 x3) (= x67 x136))) (= x45 x136))))) (and (and (and (or (or (or (= x20 x24) (or (= x67 x24) (= x3 x24))) (= x45 x24)) (= x116 x24)) (and (or (or (= x45 x130) (or (= x130 x20) (or (= x130 x3) (= x130 x67)))) (= x116 x130)) (or (or (= x45 x91) (or (or (= x91 x3) (= x67 x91)) (= x20 x91))) (= x116 x91)))) (or (= x75 x116) (or (= x45 x75) (or (= x75 x20) (or (= x67 x75) (= x3 x75)))))) (or (= x117 x116) (or (or (or (= x67 x117) (= x117 x3)) (= x117 x20)) (= x45 x117)))))))
(assert (let ((x145 (x100 x67 x45)) (x15 (x100 x67 x3)) (x105 (x100 x20 x45)) (x140 (x100 x3 x20)) (x117 (x100 x116 x116)) (x11 (x100 x3 x116)) (x12 (x100 x20 x67)) (x111 (x100 x45 x45)) (x17 (x100 x67 x20)) (x124 (x100 x3 x3)) (x95 (x100 x45 x67)) (x136 (x100 x45 x116)) (x118 (x100 x20 x20)) (x91 (x100 x116 x67)) (x74 (x100 x45 x3)) (x151 (x100 x20 x3)) (x130 (x100 x116 x3)) (x154 (x100 x3 x67)) (x48 (x100 x20 x116)) (x75 (x100 x116 x45)) (x132 (x100 x67 x67)) (x53 (x100 x3 x45)) (x69 (x100 x67 x116)) (x149 (x100 x45 x20)) (x24 (x100 x116 x20))) (let ((x39 (= (x100 x132 x132) x67)) (x43 (= x20 (x100 x118 x118))) (x113 (= (x100 x124 x124) x3)) (x104 (= x116 (x100 x117 x117))) (x155 (= (x100 x111 x111) x45))) (and (or (and (and (and (and (not (= x3 (x100 x130 x130))) (not (= (x100 x91 x91) x67))) (not (= (x100 x24 x24) x20))) (not (= x45 (x100 x75 x75)))) (not x104)) (or (and (and (and (and (not (= x67 (x100 x95 x95))) (not (= x3 (x100 x74 x74)))) (not (= x20 (x100 x149 x149)))) (not x155)) (not (= x116 (x100 x136 x136)))) (or (or (and (not (= (x100 x11 x11) x116)) (and (and (not (= x20 (x100 x140 x140))) (and (not (= (x100 x154 x154) x67)) (not x113))) (not (= (x100 x53 x53) x45)))) (and (not (= (x100 x69 x69) x116)) (and (not (= (x100 x145 x145) x45)) (and (and (not x39) (not (= x3 (x100 x15 x15)))) (not (= x20 (x100 x17 x17))))))) (and (and (not (= x45 (x100 x105 x105))) (and (and (not (= x3 (x100 x151 x151))) (not (= x67 (x100 x12 x12)))) (not x43))) (not (= (x100 x48 x48) x116)))))) (or x104 (or x155 (or x43 (or x39 x113))))))))
(assert (and (or (= x116 (x100 x116 (x100 x116 x116))) (or (or (= (x100 x116 (x100 x116 x20)) x20) (or (= x67 (x100 x116 (x100 x116 x67))) (= x3 (x100 x116 (x100 x116 x3))))) (= (x100 x116 (x100 x116 x45)) x45))) (and (and (or (= x116 (x100 x20 (x100 x20 x116))) (or (or (= x20 (x100 x20 (x100 x20 x20))) (or (= x3 (x100 x20 (x100 x20 x3))) (= x67 (x100 x20 (x100 x20 x67))))) (= (x100 x20 (x100 x20 x45)) x45))) (and (or (= x116 (x100 x67 (x100 x67 x116))) (or (or (= (x100 x67 (x100 x67 x20)) x20) (or (= x67 (x100 x67 (x100 x67 x67))) (= (x100 x67 (x100 x67 x3)) x3))) (= (x100 x67 (x100 x67 x45)) x45))) (or (= (x100 x3 (x100 x3 x116)) x116) (or (or (or (= x3 (x100 x3 (x100 x3 x3))) (= x67 (x100 x3 (x100 x3 x67)))) (= x20 (x100 x3 (x100 x3 x20)))) (= (x100 x3 (x100 x3 x45)) x45))))) (or (= x116 (x100 x45 (x100 x45 x116))) (or (or (= (x100 x45 (x100 x45 x20)) x20) (or (= x3 (x100 x45 (x100 x45 x3))) (= x67 (x100 x45 (x100 x45 x67))))) (= x45 (x100 x45 (x100 x45 x45))))))))
(assert (let ((x53 (x100 x45 x45)) (x11 (x100 x116 x116)) (x140 (x100 x20 x20)) (x154 (x100 x67 x67)) (x124 (x100 x3 x3))) (or (and (not (= x116 x11)) (and (not (= x53 x116)) (and (and (not (= x124 x116)) (not (= x116 x154))) (not (= x116 x140))))) (or (or (and (not (= x20 x11)) (and (and (and (not (= x20 x124)) (not (= x154 x20))) (not (= x20 x140))) (not (= x20 x53)))) (or (and (not (= x11 x67)) (and (and (not (= x140 x67)) (and (not (= x154 x67)) (not (= x67 x124)))) (not (= x53 x67)))) (and (and (and (not (= x3 x140)) (and (not (= x3 x124)) (not (= x154 x3)))) (not (= x53 x3))) (not (= x3 x11))))) (and (not (= x45 x11)) (and (not (= x53 x45)) (and (not (= x45 x140)) (and (not (= x124 x45)) (not (= x45 x154))))))))))
(assert (not (and (and (= x67 (x100 x116 x45)) (and (= x20 (x100 x116 x20)) (and (and (and (and (and (= x116 (x100 x45 x20)) (and (and (and (and (= x116 (x100 x20 x45)) (and (= x45 (x100 x20 x20)) (and (and (and (= x20 (x100 x67 x116)) (and (and (= (x100 x67 x20) x67) (and (= x116 (x100 x67 x67)) (and (and (and (and (and (= x20 (x100 x3 x3)) (= (x100 x3 x67) x67)) (= x3 (x100 x3 x20))) (= (x100 x3 x45) x45)) (= x116 (x100 x3 x116))) (= x45 (x100 x67 x3))))) (= (x100 x67 x45) x3))) (= x3 (x100 x20 x3))) (= x20 (x100 x20 x67))))) (= (x100 x20 x116) x67)) (= x67 (x100 x45 x3))) (= (x100 x45 x67) x3))) (= x20 (x100 x45 x45))) (= x45 (x100 x45 x116))) (= x116 (x100 x116 x3))) (= (x100 x116 x67) x45)))) (= (x100 x116 x116) x3))))
(assert (let ((x91 (x100 x67 x116)) (x39 (x100 x116 x67)) (x126 (x100 x116 x45)) (x52 (x100 x116 x116)) (x11 (x100 x3 x45)) (x15 (x100 x3 x116)) (x107 (x100 x20 x20)) (x145 (x100 x20 x3)) (x140 (x100 x3 x67)) (x136 (x100 x67 x20)) (x154 (x100 x3 x3)) (x130 (x100 x67 x45)) (x53 (x100 x3 x20)) (x69 (x100 x45 x3)) (x28 (x100 x45 x45)) (x141 (x100 x45 x116)) (x13 (x100 x45 x20)) (x81 (x100 x116 x20)) (x125 (x100 x20 x116)) (x17 (x100 x67 x3)) (x151 (x100 x116 x3)) (x113 (x100 x45 x67)) (x111 (x100 x67 x67)) (x62 (x100 x20 x45)) (x117 (x100 x20 x67))) (let ((x34 (= x45 x111)) (x79 (= x116 x62)) (x109 (= x45 x107)) (x133 (= x116 x140)) (x74 (= x140 x3)) (x38 (= x151 x116)) (x22 (= x91 x20)) (x83 (= x3 x136)) (x144 (= x145 x20)) (x110 (= x113 x3)) (x7 (= x91 x45)) (x153 (= x67 x52)) (x65 (= x3 x141)) (x138 (= x125 x20)) (x143 (= x69 x67)) (x14 (= x45 x136)) (x123 (= x45 x62)) (x97 (= x45 x81)) (x84 (= x116 x28)) (x42 (= x20 x141)) (x5 (= x67 x28)) (x88 (= x67 x107)) (x50 (= x116 x130)) (x1 (= x45 x125)) (x36 (= x136 x67)) (x56 (= x62 x67)) (x55 (= x67 x126)) (x108 (= x67 x91)) (x68 (= x130 x20)) (x75 (= x111 x67)) (x44 (= x11 x3)) (x150 (= x125 x3)) (x104 (= x20 x111)) (x129 (= x130 x45)) (x33 (= x113 x45)) (x114 (= x15 x45)) (x87 (= x117 x116)) (x159 (= x3 x13)) (x137 (= x53 x3)) (x156 (= x67 x81)) (x101 (= x62 x3)) (x82 (= x141 x67)) (x124 (= x3 x154)) (x86 (= x39 x67)) (x21 (= x141 x116)) (x98 (= x15 x67)) (x103 (= x3 x52)) (x77 (= x3 x145)) (x16 (= x45 x117)) (x73 (= x39 x116)) (x46 (= x136 x116)) (x157 (= x67 x125)) (x135 (= x20 x53)) (x31 (= x107 x116)) (x8 (= x20 x13)) (x35 (= x28 x20)) (x47 (= x45 x28)) (x48 (= x17 x3)) (x26 (= x45 x11)) (x115 (= x62 x20)) (x95 (= x111 x3)) (x40 (= x81 x3)) (x152 (= x136 x20)) (x23 (= x151 x67)) (x9 (= x117 x3)) (x155 (= x140 x20)) (x148 (= x3 x28)) (x92 (= x113 x20)) (x12 (= x154 x20)) (x51 (= x91 x116)) (x80 (= x53 x116)) (x85 (= x45 x52)) (x118 (= x45 x154)) (x93 (= x11 x20)) (x18 (= x3 x151)) (x134 (= x69 x45)) (x63 (= x20 x39)) (x106 (= x126 x3)) (x24 (= x67 x140)) (x6 (= x3 x130)) (x99 (= x113 x67)) (x60 (= x45 x13)) (x43 (= x20 x17)) (x120 (= x20 x69)) (x58 (= x39 x45)) (x30 (= x13 x116)) (x105 (= x116 x154)) (x27 (= x3 x39)) (x127 (= x116 x69)) (x4 (= x126 x20)) (x96 (= x116 x125)) (x49 (= x45 x151)) (x70 (= x67 x117)) (x57 (= x20 x15)) (x102 (= x145 x67)) (x25 (= x107 x3)) (x72 (= x15 x116)) (x94 (= x53 x67)) (x37 (= x145 x45)) (x132 (= x67 x154)) (x59 (= x91 x3)) (x128 (= x53 x45)) (x78 (= x116 x17)) (x61 (= x3 x15)) (x146 (= x107 x20)) (x41 (= x116 x113)) (x66 (= x67 x13)) (x64 (= x11 x67)) (x89 (= x126 x45)) (x29 (= x116 x52)) (x90 (= x116 x126)) (x76 (= x52 x20)) (x139 (= x45 x17)) (x121 (= x20 x151)) (x32 (= x20 x81)) (x119 (= x45 x141)) (x149 (= x67 x17)) (x10 (= x117 x20)) (x158 (= x111 x116)) (x142 (= x116 x81)) (x122 (= x145 x116)) (x71 (= x3 x69)) (x54 (= x11 x116)) (x147 (= x130 x67)) (x2 (= x140 x45))) (and (and (and (and (and (and (and (or (or (or x37 (or x139 x118)) x134) x49) (or (or (or x128 (or x2 x118)) x26) x114)) (and (and (or (or x93 (or (or x155 x12) x135)) x57) (or (or x120 (or (or x12 x43) x144)) x121)) (and (and (or x98 (or x64 (or (or x132 x24) x94))) (or (or (or (or x132 x149) x102) x143) x23)) (and (or (or x71 (or x77 (or x48 x124))) x18) (or (or x44 (or (or x74 x124) x137)) x61))))) (and (or (or (or x80 (or x105 x133)) x54) x72) (or (or x127 (or (or x78 x105) x122)) x38))) (and (and (or (or x50 (or x46 (or x158 x78))) x51) (or (or (or (or x133 x158) x87) x41) x73)) (and (and (and (or (or x92 (or (or x104 x155) x10)) x63) (or (or (or (or x104 x43) x152) x68) x22)) (and (and (or (or (or x9 (or x74 x95)) x110) x27) (or (or (or x83 (or x48 x95)) x6) x59)) (and (or x108 (or x147 (or x36 (or x75 x149)))) (or x86 (or (or x70 (or x75 x24)) x99))))) (and (or x7 (or x129 (or (or x139 x34) x14))) (or x58 (or (or (or x34 x2) x16) x33)))))) (and (and (or (or (or x31 (or x46 x80)) x30) x142) (or (or x79 (or (or x87 x122) x31)) x96)) (and (and (and (and (or (or x66 (or (or x94 x36) x88)) x156) (or (or (or x88 (or x102 x70)) x56) x157)) (and (or x40 (or (or (or x137 x83) x25) x159)) (or (or (or (or x9 x77) x25) x101) x150))) (and (or x138 (or (or (or x10 x144) x146) x115)) (or (or x8 (or (or x135 x152) x146)) x32))) (and (or (or (or (or x128 x14) x109) x60) x97) (or (or (or x109 (or x37 x16)) x123) x1))))) (and (and (or (or (or x30 (or x41 x127)) x84) x21) (or x90 (or x84 (or (or x54 x50) x79)))) (and (and (and (or x42 (or x35 (or x8 (or x92 x120)))) (or (or (or x115 (or x93 x68)) x35) x4)) (and (and (or x82 (or x5 (or (or x143 x99) x66))) (or (or x5 (or x56 (or x147 x64))) x55)) (and (or x65 (or x148 (or x159 (or x71 x110)))) (or x106 (or (or x101 (or x44 x6)) x148))))) (and (or (or (or x60 (or x33 x134)) x47) x119) (or x89 (or x47 (or x123 (or x26 x129)))))))) (and (and (or x29 (or (or (or x51 x72) x96) x21)) (or x29 (or x90 (or (or x38 x73) x142)))) (and (and (or (or (or (or x49 x58) x97) x89) x85) (or x85 (or x119 (or (or x114 x7) x1)))) (and (and (or x76 (or (or (or x22 x57) x138) x42)) (or (or (or (or x63 x121) x32) x4) x76)) (and (and (or x103 (or (or (or x61 x59) x150) x65)) (or x103 (or (or x40 (or x27 x18)) x106))) (and (or (or (or (or x108 x98) x157) x82) x153) (or (or x55 (or x156 (or x23 x86))) x153))))))))))
(assert (let ((x9 (x100 x67 x67)) (x70 (x100 x45 x67)) (x10 (x100 x45 x20)) (x43 (x100 x3 x67)) (x113 (x100 x3 x3)) (x46 (x100 x116 x45)) (x139 (x100 x20 x3)) (x102 (x100 x67 x45)) (x144 (x100 x20 x45)) (x133 (x100 x116 x3)) (x135 (x100 x20 x116)) (x107 (x100 x67 x116)) (x152 (x100 x116 x20)) (x13 (x100 x20 x20)) (x143 (x100 x116 x116)) (x80 (x100 x45 x116)) (x104 (x100 x3 x20)) (x83 (x100 x67 x20)) (x122 (x100 x45 x45)) (x25 (x100 x20 x67)) (x2 (x100 x3 x45)) (x155 (x100 x67 x3)) (x62 (x100 x116 x67)) (x78 (x100 x3 x116)) (x34 (x100 x45 x3))) (let ((x11 (not (= x3 x139))) (x118 (not (= x3 x102))) (x38 (not (= x133 x116))) (x88 (not (= x67 x83))) (x158 (not (= x155 x67))) (x123 (not (= x20 x152))) (x154 (not (= x155 x3))) (x24 (not (= x3 x46))) (x105 (not (= x10 x3))) (x150 (not (= x2 x45))) (x137 (not (= x9 x67))) (x30 (not (= x20 x143))) (x157 (not (= x152 x45))) (x71 (not (= x67 x78))) (x130 (not (= x152 x3))) (x109 (not (= x144 x67))) (x146 (not (= x67 x34))) (x91 (not (= x135 x3))) (x126 (not (= x83 x20))) (x39 (not (= x67 x113))) (x60 (not (= x20 x78))) (x115 (not (= x20 x10))) (x27 (not (= x104 x45))) (x84 (not (= x9 x45))) (x96 (not (= x46 x116))) (x12 (not (= x70 x3))) (x87 (not (= x67 x122))) (x147 (not (= x139 x20))) (x120 (not (= x13 x20))) (x23 (not (= x10 x45))) (x32 (not (= x113 x116))) (x17 (not (= x83 x3))) (x124 (not (= x113 x3))) (x95 (not (= x3 x133))) (x93 (not (= x70 x20))) (x129 (not (= x20 x107))) (x47 (not (= x20 x135))) (x14 (not (= x67 x10))) (x66 (not (= x113 x20))) (x22 (not (= x9 x116))) (x28 (not (= x155 x20))) (x54 (not (= x113 x45))) (x151 (not (= x3 x2))) (x8 (not (= x2 x20))) (x98 (not (= x45 x62))) (x97 (not (= x34 x116))) (x145 (not (= x13 x3))) (x108 (not (= x45 x107))) (x110 (not (= x62 x67))) (x99 (not (= x143 x67))) (x141 (not (= x20 x43))) (x121 (not (= x80 x45))) (x73 (not (= x78 x116))) (x106 (not (= x83 x45))) (x117 (not (= x3 x143))) (x41 (not (= x80 x20))) (x42 (not (= x104 x116))) (x134 (not (= x20 x122))) (x16 (not (= x70 x67))) (x5 (not (= x20 x25))) (x31 (not (= x67 x133))) (x128 (not (= x67 x102))) (x40 (not (= x45 x25))) (x4 (not (= x116 x155))) (x33 (not (= x20 x133))) (x36 (not (= x25 x67))) (x111 (not (= x3 x62))) (x89 (not (= x2 x116))) (x74 (not (= x3 x122))) (x64 (not (= x20 x9))) (x90 (not (= x116 x107))) (x61 (not (= x45 x13))) (x49 (not (= x116 x83))) (x76 (not (= x25 x116))) (x114 (not (= x70 x116))) (x29 (not (= x116 x143))) (x57 (not (= x116 x43))) (x63 (not (= x45 x143))) (x15 (not (= x104 x3))) (x153 (not (= x45 x46))) (x59 (not (= x34 x45))) (x86 (not (= x45 x144))) (x142 (not (= x62 x116))) (x127 (not (= x46 x20))) (x138 (not (= x116 x139))) (x55 (not (= x133 x45))) (x6 (not (= x67 x135))) (x103 (not (= x102 x45))) (x51 (not (= x135 x116))) (x81 (not (= x67 x13))) (x79 (not (= x45 x43))) (x159 (not (= x67 x107))) (x149 (not (= x3 x78))) (x56 (not (= x104 x20))) (x26 (not (= x20 x62))) (x94 (not (= x104 x67))) (x37 (not (= x2 x67))) (x156 (not (= x122 x45))) (x72 (not (= x116 x152))) (x48 (not (= x144 x3))) (x101 (not (= x46 x67))) (x35 (not (= x20 x144))) (x125 (not (= x139 x67))) (x92 (not (= x20 x34))) (x1 (not (= x10 x116))) (x52 (not (= x78 x45))) (x69 (not (= x3 x34))) (x75 (not (= x3 x80))) (x65 (not (= x45 x70))) (x58 (not (= x116 x13))) (x44 (not (= x67 x152))) (x7 (not (= x102 x116))) (x136 (not (= x3 x107))) (x77 (not (= x67 x43))) (x68 (not (= x102 x20))) (x140 (not (= x3 x43))) (x82 (not (= x135 x45))) (x148 (not (= x67 x80))) (x132 (not (= x3 x25))) (x53 (not (= x3 x9))) (x85 (not (= x116 x122))) (x21 (not (= x80 x116))) (x18 (not (= x45 x139))) (x119 (not (= x144 x116))) (x50 (not (= x45 x155)))) (or (and (and (and (or x96 x21) (and (or x72 x51) (and (or x38 x73) (or x90 x142)))) (or x29 x29)) (and (and (and (and (or x119 x1) (and (and (or x138 x42) (or x76 x49)) (or x58 x58))) (or x72 x51)) (and (and (or x38 x73) (and (and (and (or x32 x32) (or x57 x4)) (or x138 x42)) (or x97 x89))) (and (or x90 x142) (and (or x7 x114) (and (and (or x4 x57) (or x22 x22)) (or x49 x76)))))) (and (or x96 x21) (and (or x85 x85) (and (and (or x7 x114) (or x89 x97)) (or x1 x119)))))) (or (or (or (and (and (and (or x75 x24) (and (and (or x105 x48) (and (or x12 x118) (or x151 x69))) (or x74 x74))) (and (and (and (or x149 x95) (and (and (and (or x124 x124) (or x154 x140)) (or x11 x15)) (or x69 x151))) (and (and (and (or x132 x17) (and (or x53 x53) (or x140 x154))) (or x118 x12)) (or x111 x136))) (and (and (or x105 x48) (and (and (or x132 x17) (or x11 x15)) (or x145 x145))) (or x91 x130)))) (and (or x117 x117) (and (and (or x91 x130) (and (or x95 x149) (or x111 x136))) (or x75 x24)))) (and (and (and (and (and (and (or x146 x37) (and (and (or x39 x39) (or x158 x77)) (or x94 x125))) (or x71 x31)) (and (and (and (and (or x137 x137) (or x77 x158)) (or x36 x88)) (or x128 x16)) (or x110 x159))) (and (or x44 x6) (and (and (or x81 x81) (and (or x125 x94) (or x36 x88))) (or x14 x109)))) (and (or x148 x101) (and (and (or x14 x109) (and (or x128 x16) (or x146 x37))) (or x87 x87)))) (and (or x99 x99) (and (and (or x44 x6) (and (or x110 x159) (or x31 x71))) (or x148 x101))))) (and (and (and (or x127 x41) (and (or x47 x123) (and (or x60 x33) (or x26 x129)))) (or x30 x30)) (and (and (and (or x47 x123) (and (and (and (or x126 x5) (or x147 x56)) (or x120 x120)) (or x35 x115))) (and (and (or x33 x60) (and (and (or x56 x147) (and (or x28 x141) (or x66 x66))) (or x8 x92))) (and (or x129 x26) (and (or x68 x93) (and (and (or x64 x64) (or x28 x141)) (or x126 x5)))))) (and (or x127 x41) (and (and (and (or x8 x92) (or x68 x93)) (or x115 x35)) (or x134 x134)))))) (and (and (and (or x153 x121) (and (or x156 x156) (and (or x86 x23) (and (or x103 x65) (or x150 x59))))) (and (and (and (and (or x65 x103) (and (and (or x50 x79) (or x84 x84)) (or x106 x40))) (or x108 x98)) (and (and (or x59 x150) (and (and (or x79 x50) (or x54 x54)) (or x18 x27))) (or x55 x52))) (and (or x157 x82) (and (or x23 x86) (and (or x61 x61) (and (or x27 x18) (or x40 x106))))))) (and (and (and (or x82 x157) (and (or x108 x98) (or x52 x55))) (or x121 x153)) (or x63 x63))))))))
(assert (let ((x17 (x100 x67 x20)) (x132 (x100 x20 x67)) (x117 (= x116 (x100 x116 x116))) (x151 (x100 x3 x45)) (x111 (x100 x116 x67)) (x136 (x100 x67 x116)) (x53 (= x67 (x100 x67 x67))) (x15 (x100 x3 x20)) (x118 (x100 x67 x45)) (x124 (= x3 (x100 x3 x3))) (x48 (x100 x20 x45)) (x130 (x100 x116 x20)) (x12 (x100 x45 x67)) (x145 (= x20 (x100 x20 x20))) (x95 (x100 x116 x3)) (x140 (x100 x3 x67)) (x105 (x100 x45 x20)) (x91 (x100 x20 x116)) (x24 (x100 x116 x45)) (x149 (x100 x3 x116)) (x11 (x100 x20 x3)) (x75 (x100 x45 x116)) (x69 (x100 x45 x3)) (x154 (x100 x67 x3)) (x74 (= (x100 x45 x45) x45))) (or (or (or (or (and (= x130 x116) (= x91 x116)) (or (and (= x116 x95) (= x149 x116)) (and (= x111 x116) (= x116 x136)))) (and (= x75 x116) (= x116 x24))) (and x117 x117)) (or (or (and (= x45 x24) (= x75 x45)) (or (or (or (and (= x12 x45) (= x45 x118)) (and (= x45 x151) (= x45 x69))) (and (= x48 x45) (= x45 x105))) (and x74 x74))) (or (or (and (= x91 x20) (= x20 x130)) (or (or (or (and (= x20 x11) (= x20 x15)) (and (= x20 x132) (= x20 x17))) (and x145 x145)) (and (= x20 x48) (= x20 x105)))) (or (or (or (or (or (and (= x3 x140) (= x154 x3)) (and x124 x124)) (and (= x15 x3) (= x11 x3))) (and (= x69 x3) (= x151 x3))) (and (= x3 x149) (= x3 x95))) (or (and (= x111 x67) (= x67 x136)) (or (and (= x67 x12) (= x67 x118)) (or (or (and x53 x53) (and (= x67 x140) (= x67 x154))) (and (= x67 x132) (= x67 x17)))))))))))
(assert (and (= x116 (x100 x45 x20)) (and (= (x100 x45 x45) x20) (and (= x67 (x100 x116 x45)) (= x3 (x100 x67 x45))))))
(assert (let ((x118 (x100 x20 x20)) (x151 (x100 x3 x20)) (x48 (x100 x116 x20)) (x15 (x100 x3 x67)) (x74 (x100 x3 x45)) (x91 (x100 x67 x116)) (x12 (x100 x67 x20)) (x149 (x100 x20 x45)) (x111 (x100 x45 x45)) (x117 (x100 x116 x116)) (x95 (x100 x67 x45)) (x130 (x100 x3 x116)) (x53 (x100 x45 x3)) (x140 (x100 x20 x3)) (x75 (x100 x45 x116)) (x136 (x100 x116 x45)) (x17 (x100 x20 x67)) (x145 (x100 x45 x67)) (x105 (x100 x45 x20)) (x11 (x100 x116 x3)) (x69 (x100 x116 x67)) (x24 (x100 x20 x116)) (x132 (x100 x67 x67)) (x154 (x100 x67 x3)) (x124 (x100 x3 x3))) (or (or (and (and (not (= x45 (x100 x111 x111))) (and (and (not (= (x100 x74 x74) x3)) (not (= (x100 x95 x95) x67))) (not (= (x100 x149 x149) x20)))) (not (= (x100 x136 x136) x116))) (or (and (not (= x116 (x100 x48 x48))) (and (not (= (x100 x105 x105) x45)) (and (not (= (x100 x118 x118) x20)) (and (not (= (x100 x12 x12) x67)) (not (= (x100 x151 x151) x3)))))) (or (and (and (and (not (= (x100 x140 x140) x20)) (and (not (= x3 (x100 x124 x124))) (not (= x67 (x100 x154 x154))))) (not (= (x100 x53 x53) x45))) (not (= (x100 x11 x11) x116))) (and (not (= x116 (x100 x69 x69))) (and (not (= x45 (x100 x145 x145))) (and (and (not (= x3 (x100 x15 x15))) (not (= x67 (x100 x132 x132)))) (not (= x20 (x100 x17 x17))))))))) (and (and (and (not (= x20 (x100 x24 x24))) (and (not (= x67 (x100 x91 x91))) (not (= x3 (x100 x130 x130))))) (not (= (x100 x75 x75) x45))) (not (= (x100 x117 x117) x116))))))
(assert (and (not (= x116 x45)) (and (and (not (= x20 x45)) (and (not (= x67 x116)) (and (and (and (and (not (= x45 x3)) (and (not (= x3 x67)) (not (= x20 x3)))) (not (= x3 x116))) (not (= x20 x67))) (not (= x45 x67))))) (not (= x116 x20)))))
(assert (or (and (and (and (and (not (= x3 (x100 x116 x3))) (not (= x67 (x100 x116 x67)))) (not (= (x100 x116 x20) x20))) (not (= x45 (x100 x116 x45)))) (not (= x116 (x100 x116 x116)))) (or (or (or (and (not (= x116 (x100 x3 x116))) (and (and (and (not (= x3 (x100 x3 x3))) (not (= x67 (x100 x3 x67)))) (not (= x20 (x100 x3 x20)))) (not (= x45 (x100 x3 x45))))) (and (and (not (= x45 (x100 x67 x45))) (and (not (= (x100 x67 x20) x20)) (and (not (= x3 (x100 x67 x3))) (not (= x67 (x100 x67 x67)))))) (not (= (x100 x67 x116) x116)))) (and (not (= (x100 x20 x116) x116)) (and (not (= x45 (x100 x20 x45))) (and (not (= x20 (x100 x20 x20))) (and (not (= x3 (x100 x20 x3))) (not (= (x100 x20 x67) x67))))))) (and (and (and (and (not (= (x100 x45 x3) x3)) (not (= x67 (x100 x45 x67)))) (not (= (x100 x45 x20) x20))) (not (= x45 (x100 x45 x45)))) (not (= x116 (x100 x45 x116)))))))
(assert (and (and (and (not (= x20 (x100 x20 x20))) (and (not (= (x100 x3 x3) x3)) (not (= x67 (x100 x67 x67))))) (not (= (x100 x45 x45) x45))) (not (= x116 (x100 x116 x116)))))
(assert (let ((x140 (x100 x20 x20)) (x53 (x100 x45 x45)) (x124 (x100 x3 x3)) (x154 (x100 x67 x67)) (x11 (x100 x116 x116))) (and (or (or (or (= x20 (x100 x140 x20)) (or (= (x100 x154 x67) x67) (= x3 (x100 x124 x3)))) (= x45 (x100 x53 x45))) (= x116 (x100 x11 x116))) (and (or (= x116 (x100 x116 x11)) (or (or (= x116 (x100 x20 (x100 x116 x20))) (or (= x116 (x100 x67 (x100 x116 x67))) (= (x100 x3 (x100 x116 x3)) x116))) (= (x100 x45 (x100 x116 x45)) x116))) (and (and (and (or (or (or (= (x100 x20 (x100 x67 x20)) x67) (or (= x67 (x100 x67 x154)) (= x67 (x100 x3 (x100 x67 x3))))) (= x67 (x100 x45 (x100 x67 x45)))) (= (x100 x116 (x100 x67 x116)) x67)) (or (or (= x3 (x100 x45 (x100 x3 x45))) (or (= (x100 x20 (x100 x3 x20)) x3) (or (= (x100 x67 (x100 x3 x67)) x3) (= x3 (x100 x3 x124))))) (= x3 (x100 x116 (x100 x3 x116))))) (or (or (= x20 (x100 x45 (x100 x20 x45))) (or (= (x100 x20 x140) x20) (or (= x20 (x100 x3 (x100 x20 x3))) (= (x100 x67 (x100 x20 x67)) x20)))) (= (x100 x116 (x100 x20 x116)) x20))) (or (= (x100 x116 (x100 x45 x116)) x45) (or (or (= x45 (x100 x20 (x100 x45 x20))) (or (= x45 (x100 x67 (x100 x45 x67))) (= x45 (x100 x3 (x100 x45 x3))))) (= x45 (x100 x45 x53)))))))))
(assert (let ((x95 (x100 x67 x45)) (x75 (x100 x45 x116)) (x117 (x100 x116 x116)) (x105 (x100 x45 x20)) (x53 (x100 x45 x3)) (x136 (x100 x116 x45)) (x15 (x100 x3 x67)) (x124 (x100 x3 x3)) (x74 (x100 x3 x45)) (x24 (x100 x20 x116)) (x151 (x100 x3 x20)) (x132 (x100 x67 x67)) (x69 (x100 x116 x67)) (x111 (x100 x45 x45)) (x140 (x100 x20 x3)) (x17 (x100 x20 x67)) (x154 (x100 x67 x3)) (x48 (x100 x116 x20)) (x130 (x100 x3 x116)) (x12 (x100 x67 x20)) (x11 (x100 x116 x3)) (x149 (x100 x20 x45)) (x118 (x100 x20 x20)) (x91 (x100 x67 x116)) (x145 (x100 x45 x67))) (and (and (and (and (and (and (not (= x117 x69)) (and (not (= x69 x136)) (and (and (and (not (= x11 x136)) (and (not (= x11 x48)) (not (= x69 x11)))) (not (= x117 x11))) (not (= x69 x48))))) (not (= x48 x136))) (not (= x48 x117))) (not (= x117 x136))) (and (and (not (= x75 x111)) (and (and (and (and (not (= x145 x111)) (and (not (= x105 x145)) (and (and (not (= x111 x53)) (and (not (= x145 x53)) (not (= x105 x53)))) (not (= x53 x75))))) (not (= x145 x75))) (not (= x105 x111))) (not (= x105 x75)))) (and (and (and (and (not (= x130 x151)) (and (and (not (= x130 x15)) (and (not (= x74 x15)) (and (and (not (= x124 x130)) (and (and (not (= x151 x124)) (not (= x124 x15))) (not (= x124 x74)))) (not (= x15 x151))))) (not (= x74 x151)))) (not (= x74 x130))) (and (and (and (and (not (= x132 x91)) (and (and (not (= x132 x12)) (and (not (= x154 x91)) (and (not (= x95 x154)) (and (not (= x154 x12)) (not (= x154 x132)))))) (not (= x95 x132)))) (not (= x95 x12))) (not (= x12 x91))) (not (= x95 x91)))) (and (not (= x24 x149)) (and (not (= x24 x118)) (and (not (= x149 x118)) (and (not (= x24 x17)) (and (and (and (and (and (not (= x118 x140)) (not (= x140 x17))) (not (= x140 x149))) (not (= x24 x140))) (not (= x118 x17))) (not (= x17 x149)))))))))) (and (and (and (and (not (= x24 x75)) (and (not (= x91 x117)) (and (and (and (not (= x117 x130)) (and (not (= x75 x130)) (and (not (= x130 x91)) (not (= x24 x130))))) (not (= x24 x91))) (not (= x91 x75))))) (not (= x117 x24))) (not (= x75 x117))) (and (and (and (not (= x105 x48)) (and (not (= x118 x48)) (and (not (= x118 x105)) (and (not (= x12 x48)) (and (and (and (not (= x151 x48)) (and (not (= x151 x105)) (and (not (= x151 x12)) (not (= x118 x151))))) (not (= x12 x118))) (not (= x12 x105))))))) (and (and (not (= x69 x145)) (and (and (and (not (= x132 x69)) (and (not (= x132 x145)) (and (not (= x17 x132)) (and (and (not (= x15 x145)) (and (not (= x17 x15)) (not (= x15 x132)))) (not (= x69 x15)))))) (not (= x17 x145))) (not (= x17 x69)))) (and (not (= x11 x53)) (and (and (and (and (not (= x53 x154)) (and (not (= x154 x140)) (and (not (= x124 x11)) (and (not (= x53 x124)) (and (not (= x154 x124)) (not (= x124 x140))))))) (not (= x11 x154))) (not (= x140 x53))) (not (= x140 x11)))))) (and (and (not (= x149 x136)) (and (and (not (= x136 x95)) (and (and (and (not (= x136 x74)) (and (and (not (= x74 x95)) (not (= x74 x149))) (not (= x111 x74)))) (not (= x149 x95))) (not (= x95 x111)))) (not (= x111 x149)))) (not (= x111 x136))))))))
(check-sat)
(exit)
